************************************************************************
file with basedata            : md350_.bas
initial value random generator: 1572359017
************************************************************************
projects                      :  1
jobs (incl. supersource/sink ):  22
horizon                       :  162
RESOURCES
  - renewable                 :  2   R
  - nonrenewable              :  2   N
  - doubly constrained        :  0   D
************************************************************************
PROJECT INFORMATION:
pronr.  #jobs rel.date duedate tardcost  MPM-Time
    1     20      0       22       12       22
************************************************************************
PRECEDENCE RELATIONS:
jobnr.    #modes  #successors   successors
   1        1          3           2   3   4
   2        3          2           7  12
   3        3          2           7  10
   4        3          3           5   9  17
   5        3          3           6   8  21
   6        3          2          11  14
   7        3          2          15  19
   8        3          2          11  14
   9        3          3          16  18  21
  10        3          2          12  13
  11        3          3          13  18  20
  12        3          3          14  15  18
  13        3          1          16
  14        3          2          16  20
  15        3          1          17
  16        3          1          19
  17        3          1          20
  18        3          1          19
  19        3          1          22
  20        3          1          22
  21        3          1          22
  22        1          0        
************************************************************************
REQUESTS/DURATIONS:
jobnr. mode duration  R 1  R 2  N 1  N 2
------------------------------------------------------------------------
  1      1     0       0    0    0    0
  2      1     1       4    4    0    9
         2     9       4    3    0    7
         3    10       3    1    8    0
  3      1     2       8    9    9    0
         2     8       5    4    8    0
         3     8       4    5    0    7
  4      1     3       7    4    0    9
         2     6       5    2    0    6
         3     9       4    2    8    0
  5      1     5       4    4    5    0
         2     9       3    2    3    0
         3    10       3    1    0   10
  6      1     2       7    8    6    0
         2     3       7    4    0    3
         3     8       7    3    6    0
  7      1     8       3    9    0    6
         2     9       3    2    0    6
         3     9       1    5    6    0
  8      1     2       7    9    0    7
         2     2       6    9    3    0
         3     5       5    3    0    7
  9      1     2       5    7    3    0
         2     2       8    6    5    0
         3     8       3    5    3    0
 10      1     2       7    6   10    0
         2     2       7    7    0    4
         3     4       5    4   10    0
 11      1     2       7    4    0    6
         2     5       6    3    6    0
         3     8       6    2    4    0
 12      1     1       4    7    7    0
         2     3       3    6    6    0
         3     8       3    3    6    0
 13      1     2       9   10    0    8
         2     5       9    5    0    8
         3     9       8    4    0    5
 14      1     2       4    8    1    0
         2     4       4    6    1    0
         3    10       2    6    0    2
 15      1     6      10    8    0    1
         2     9       8    8    7    0
         3    10       7    6    6    0
 16      1     4       5    4    0    6
         2     8       5    3    0    6
         3     9       5    3    4    0
 17      1     5       6    5    8    0
         2     5       6    8    0    3
         3     5       6    9    6    0
 18      1     2       7    7    8    0
         2     3       7    7    0    5
         3     8       6    7    7    0
 19      1     3       8    9    0    4
         2     4       8    6    0    3
         3     8       8    3    3    0
 20      1     1       3    7    0    5
         2     5       3    6    0    2
         3     8       2    6    6    0
 21      1     7       8    7    0    3
         2     7       8    6    0    6
         3     8       5    3    8    0
 22      1     0       0    0    0    0
************************************************************************
RESOURCEAVAILABILITIES:
  R 1  R 2  N 1  N 2
   21   20  118  101
************************************************************************
MAXIMAL LAGS:
from  to  type  delay
    1   12   ES      0
    1    2   ES      0
    2   12   ES      0
    1    3   ES      0
    3   12   ES      0
    1    4   ES      0
    4   12   ES      0
    1    5   ES      0
    5   12   ES      0
    1    6   ES      0
    6   12   ES      0
    1    7   ES      0
    7   12   ES      0
    1    8   ES      0
    8   12   ES      0
    1    9   ES      0
    9   12   ES      0
    1   10   ES      0
   10   12   ES      0
    1   11   ES      0
   11   12   ES      0
    1   12   ES      0
    2    7   SS     12
    2    7   SE     -8
    2    7   ES     -9
    2    7   EE     -2
    3    7   SS     -1
    3    7   SE      7
    3    7   ES      7
    3    7   EE      1
    3   10   SS      3
    3   10   SE     -8
    3   10   ES     -2
    3   10   EE      1
    4    5   SS     12
    4    5   SE     -7
    4    5   ES     -7
    4    5   EE     -7
    4    9   SS     -9
    4    9   SE      7
    4    9   ES    -12
    4    9   EE     -2
    4   17   SS     -5
    4   17   SE     -6
    4   17   ES      8
    4   17   EE      8
    5    6   SS      9
    5    6   SE     -3
    5    6   ES      2
    5    6   EE    -12
    5    8   SS     -4
    5    8   SE      3
    5    8   ES     -3
    5    8   EE      3
    5   21   SS      0
    5   21   SE     -3
    5   21   ES      5
    5   21   EE     -3
    6   11   SS      9
    6   11   SE     -2
    6   11   ES     -1
    6   11   EE      7
    6   14   SS     -5
    6   14   SE      7
    6   14   ES      1
    6   14   EE     -2
    7   15   SS     -7
    7   15   SE     -9
    7   15   ES     -5
    7   15   EE      5
    7   19   SS     -5
    7   19   SE     -2
    7   19   ES    -12
    7   19   EE      3
    8   11   SS    -10
    8   11   SE     -8
    8   11   ES     -3
    8   11   EE     -2
    8   14   SS     11
    8   14   SE     -1
    8   14   ES     -6
    8   14   EE     -9
    9   16   SS     -7
    9   16   SE     10
    9   16   ES      7
    9   16   EE    -11
    9   18   SS    -12
    9   18   SE     11
    9   18   ES     -5
    9   18   EE      0
    9   21   SS     -8
    9   21   SE      9
    9   21   ES     -7
    9   21   EE    -10
   10   13   SS    -10
   10   13   SE     10
   10   13   ES     12
   10   13   EE      3
   11   13   SS     -5
   11   13   SE     12
   11   13   ES      8
   11   13   EE     -8
   11   18   SS      8
   11   18   SE      2
   11   18   ES      3
   11   18   EE     -7
   11   20   SS      1
   11   20   SE     12
   11   20   ES     -4
   11   20   EE      5
   12   14   SS      8
   12   14   SE      5
   12   14   ES     11
   12   14   EE     -5
   12   15   SS      7
   12   15   SE     -1
   12   15   ES      5
   12   15   EE     -2
   12   18   SS     10
   12   18   SE      9
   12   18   ES     -2
   12   18   EE      5
   13   16   SS     -2
   13   16   SE     -7
   13   16   ES     -7
   13   16   EE      6
   14   16   SS      9
   14   16   SE     -3
   14   16   ES     -7
   14   16   EE      9
   14   20   SS     -1
   14   20   SE     -8
   14   20   ES     10
   14   20   EE     -2
   15   17   SS     -9
   15   17   SE      0
   15   17   ES     -9
   15   17   EE      4
   16   19   SS     -2
   16   19   SE      3
   16   19   ES     -1
   16   19   EE      7
   17   20   SS    -10
   17   20   SE      2
   17   20   ES    -10
   17   20   EE    -11
   18   19   SS     -2
   18   19   SE    -11
   18   19   ES      4
   18   19   EE      8
   19   22   SS    -11
   19   22   SE     -1
   19   22   ES     -3
   19   22   EE      7
   20   22   SS    -10
   20   22   SE     -4
   20   22   ES      2
   20   22   EE      2
   21   22   SS     -3
   21   22   SE     -4
   21   22   ES      3
   21   22   EE     -5
************************************************************************
